c File: data_files/evolved_graphs/g3702.col
c
c Auto generated graph
c
p edge 100 1935
e 1 3
e 1 4
e 1 5
e 1 8
e 1 15
e 1 19
e 1 20
e 1 25
e 1 27
e 1 28
e 1 30
e 1 31
e 1 32
e 1 34
e 1 36
e 1 37
e 1 38
e 1 39
e 1 40
e 1 42
e 1 44
e 1 45
e 1 46
e 1 47
e 1 48
e 1 49
e 1 51
e 1 52
e 1 62
e 1 71
e 1 75
e 1 88
e 2 3
e 2 4
e 2 5
e 2 6
e 2 9
e 2 10
e 2 12
e 2 13
e 2 14
e 2 15
e 2 16
e 2 17
e 2 18
e 2 19
e 2 21
e 2 22
e 2 26
e 2 30
e 2 32
e 2 33
e 2 34
e 2 35
e 2 36
e 2 38
e 2 39
e 2 40
e 2 41
e 2 42
e 2 43
e 2 44
e 2 45
e 2 46
e 2 47
e 2 49
e 2 50
e 2 51
e 2 52
e 2 79
e 2 85
e 3 4
e 3 5
e 3 6
e 3 8
e 3 11
e 3 12
e 3 15
e 3 16
e 3 17
e 3 18
e 3 19
e 3 22
e 3 25
e 3 26
e 3 27
e 3 28
e 3 30
e 3 31
e 3 32
e 3 33
e 3 34
e 3 35
e 3 37
e 3 39
e 3 41
e 3 44
e 3 46
e 3 47
e 3 49
e 3 50
e 3 51
e 3 52
e 4 5
e 4 6
e 4 8
e 4 10
e 4 11
e 4 13
e 4 15
e 4 16
e 4 18
e 4 19
e 4 21
e 4 22
e 4 23
e 4 24
e 4 25
e 4 26
e 4 27
e 4 28
e 4 30
e 4 31
e 4 33
e 4 34
e 4 35
e 4 36
e 4 37
e 4 38
e 4 39
e 4 40
e 4 41
e 4 43
e 4 44
e 4 46
e 4 48
e 4 49
e 4 50
e 4 51
e 4 52
e 4 64
e 4 81
e 5 6
e 5 7
e 5 9
e 5 10
e 5 11
e 5 12
e 5 13
e 5 14
e 5 15
e 5 16
e 5 18
e 5 19
e 5 20
e 5 21
e 5 22
e 5 24
e 5 26
e 5 27
e 5 29
e 5 30
e 5 31
e 5 33
e 5 35
e 5 37
e 5 38
e 5 44
e 5 45
e 5 46
e 5 48
e 5 49
e 5 50
e 5 51
e 5 52
e 5 53
e 6 7
e 6 8
e 6 9
e 6 10
e 6 11
e 6 12
e 6 13
e 6 14
e 6 16
e 6 17
e 6 21
e 6 22
e 6 23
e 6 24
e 6 26
e 6 27
e 6 28
e 6 32
e 6 34
e 6 35
e 6 36
e 6 37
e 6 38
e 6 39
e 6 40
e 6 42
e 6 43
e 6 46
e 6 47
e 6 50
e 6 51
e 6 52
e 6 75
e 6 80
e 7 9
e 7 10
e 7 12
e 7 13
e 7 15
e 7 16
e 7 17
e 7 20
e 7 22
e 7 23
e 7 24
e 7 25
e 7 26
e 7 27
e 7 29
e 7 30
e 7 31
e 7 32
e 7 33
e 7 34
e 7 35
e 7 36
e 7 38
e 7 39
e 7 40
e 7 42
e 7 43
e 7 44
e 7 49
e 7 50
e 7 52
e 7 64
e 7 80
e 7 85
e 8 9
e 8 10
e 8 11
e 8 12
e 8 13
e 8 14
e 8 16
e 8 17
e 8 18
e 8 19
e 8 20
e 8 21
e 8 22
e 8 23
e 8 24
e 8 25
e 8 26
e 8 27
e 8 29
e 8 30
e 8 33
e 8 36
e 8 37
e 8 39
e 8 42
e 8 45
e 8 46
e 8 47
e 8 50
e 8 52
e 8 59
e 8 66
e 8 80
e 8 96
e 9 10
e 9 12
e 9 14
e 9 15
e 9 18
e 9 20
e 9 21
e 9 22
e 9 23
e 9 24
e 9 25
e 9 27
e 9 28
e 9 29
e 9 31
e 9 32
e 9 33
e 9 34
e 9 35
e 9 38
e 9 39
e 9 43
e 9 44
e 9 45
e 9 47
e 9 49
e 9 52
e 9 53
e 10 12
e 10 15
e 10 16
e 10 17
e 10 20
e 10 25
e 10 26
e 10 27
e 10 29
e 10 30
e 10 31
e 10 33
e 10 35
e 10 36
e 10 37
e 10 39
e 10 40
e 10 41
e 10 42
e 10 44
e 10 46
e 10 47
e 10 48
e 10 49
e 10 51
e 10 52
e 10 61
e 10 72
e 10 76
e 10 78
e 10 88
e 10 97
e 11 12
e 11 13
e 11 14
e 11 15
e 11 16
e 11 18
e 11 19
e 11 20
e 11 21
e 11 22
e 11 24
e 11 26
e 11 27
e 11 28
e 11 29
e 11 30
e 11 31
e 11 32
e 11 34
e 11 35
e 11 39
e 11 41
e 11 42
e 11 44
e 11 46
e 11 47
e 11 48
e 11 52
e 11 82
e 12 13
e 12 14
e 12 18
e 12 19
e 12 22
e 12 23
e 12 25
e 12 26
e 12 28
e 12 30
e 12 33
e 12 34
e 12 36
e 12 40
e 12 41
e 12 42
e 12 43
e 12 45
e 12 47
e 12 49
e 12 50
e 12 52
e 12 73
e 12 83
e 13 14
e 13 15
e 13 16
e 13 17
e 13 19
e 13 20
e 13 21
e 13 22
e 13 23
e 13 25
e 13 26
e 13 27
e 13 30
e 13 33
e 13 34
e 13 35
e 13 36
e 13 37
e 13 39
e 13 40
e 13 41
e 13 42
e 13 43
e 13 44
e 13 45
e 13 46
e 13 47
e 13 48
e 13 50
e 13 51
e 13 52
e 13 54
e 13 56
e 13 57
e 13 66
e 13 86
e 14 16
e 14 18
e 14 21
e 14 23
e 14 27
e 14 29
e 14 30
e 14 32
e 14 33
e 14 35
e 14 37
e 14 38
e 14 40
e 14 41
e 14 42
e 14 43
e 14 44
e 14 45
e 14 46
e 14 47
e 14 48
e 14 50
e 14 52
e 14 69
e 14 78
e 15 17
e 15 18
e 15 19
e 15 20
e 15 21
e 15 22
e 15 23
e 15 24
e 15 26
e 15 33
e 15 34
e 15 36
e 15 37
e 15 38
e 15 39
e 15 40
e 15 41
e 15 43
e 15 44
e 15 46
e 15 47
e 15 49
e 15 50
e 15 51
e 15 52
e 16 18
e 16 19
e 16 20
e 16 21
e 16 23
e 16 24
e 16 25
e 16 26
e 16 27
e 16 28
e 16 29
e 16 31
e 16 32
e 16 34
e 16 41
e 16 42
e 16 43
e 16 45
e 16 46
e 16 47
e 16 48
e 16 49
e 16 50
e 16 52
e 16 84
e 17 18
e 17 20
e 17 22
e 17 23
e 17 24
e 17 29
e 17 34
e 17 37
e 17 39
e 17 41
e 17 42
e 17 44
e 17 45
e 17 47
e 17 49
e 17 51
e 17 70
e 17 71
e 17 73
e 17 82
e 18 19
e 18 20
e 18 22
e 18 23
e 18 27
e 18 29
e 18 32
e 18 34
e 18 35
e 18 36
e 18 37
e 18 39
e 18 40
e 18 42
e 18 43
e 18 44
e 18 47
e 18 48
e 18 49
e 18 50
e 18 51
e 18 63
e 18 70
e 18 71
e 18 72
e 18 73
e 18 75
e 18 86
e 18 89
e 18 93
e 18 95
e 18 98
e 18 99
e 19 21
e 19 22
e 19 23
e 19 25
e 19 26
e 19 27
e 19 28
e 19 29
e 19 30
e 19 31
e 19 32
e 19 33
e 19 34
e 19 35
e 19 36
e 19 37
e 19 38
e 19 39
e 19 40
e 19 41
e 19 43
e 19 45
e 19 46
e 19 47
e 19 48
e 19 49
e 19 52
e 19 55
e 19 57
e 19 64
e 19 65
e 19 69
e 19 74
e 19 78
e 19 80
e 19 82
e 19 85
e 19 86
e 19 88
e 19 89
e 19 100
e 20 21
e 20 22
e 20 24
e 20 25
e 20 28
e 20 29
e 20 30
e 20 32
e 20 36
e 20 37
e 20 39
e 20 41
e 20 42
e 20 43
e 20 46
e 20 48
e 20 49
e 20 50
e 20 58
e 20 59
e 20 60
e 20 64
e 20 74
e 20 77
e 20 78
e 20 83
e 20 85
e 20 86
e 20 87
e 20 90
e 20 92
e 20 93
e 20 98
e 20 99
e 21 22
e 21 24
e 21 27
e 21 28
e 21 29
e 21 30
e 21 31
e 21 33
e 21 34
e 21 35
e 21 36
e 21 37
e 21 38
e 21 39
e 21 40
e 21 41
e 21 42
e 21 44
e 21 46
e 21 48
e 21 49
e 21 50
e 21 51
e 21 52
e 21 54
e 21 57
e 21 60
e 21 61
e 21 62
e 21 65
e 21 73
e 21 74
e 21 75
e 21 79
e 21 80
e 21 81
e 21 82
e 21 91
e 21 92
e 21 94
e 21 99
e 21 100
e 22 23
e 22 24
e 22 25
e 22 26
e 22 27
e 22 28
e 22 31
e 22 34
e 22 35
e 22 36
e 22 41
e 22 43
e 22 46
e 22 47
e 22 48
e 22 49
e 22 50
e 22 59
e 22 60
e 22 61
e 22 63
e 22 73
e 22 81
e 22 82
e 22 85
e 22 93
e 23 24
e 23 25
e 23 26
e 23 27
e 23 28
e 23 29
e 23 31
e 23 32
e 23 34
e 23 35
e 23 36
e 23 37
e 23 39
e 23 40
e 23 42
e 23 43
e 23 44
e 23 45
e 23 46
e 23 47
e 23 48
e 23 51
e 23 52
e 23 55
e 23 64
e 23 65
e 23 70
e 23 71
e 23 72
e 23 73
e 23 74
e 23 83
e 23 86
e 23 87
e 23 92
e 23 94
e 23 98
e 24 25
e 24 26
e 24 27
e 24 28
e 24 30
e 24 31
e 24 33
e 24 35
e 24 36
e 24 37
e 24 38
e 24 39
e 24 40
e 24 41
e 24 42
e 24 44
e 24 45
e 24 46
e 24 47
e 24 48
e 24 50
e 24 51
e 24 52
e 24 63
e 24 64
e 24 65
e 24 70
e 24 76
e 24 77
e 24 91
e 24 98
e 24 100
e 25 27
e 25 28
e 25 29
e 25 30
e 25 33
e 25 35
e 25 36
e 25 38
e 25 41
e 25 43
e 25 48
e 25 49
e 25 50
e 25 51
e 25 52
e 25 53
e 25 66
e 25 72
e 25 76
e 25 78
e 25 80
e 25 83
e 25 88
e 25 91
e 25 92
e 25 96
e 25 98
e 25 100
e 26 27
e 26 28
e 26 31
e 26 32
e 26 33
e 26 34
e 26 35
e 26 37
e 26 39
e 26 42
e 26 43
e 26 46
e 26 47
e 26 48
e 26 49
e 26 51
e 26 58
e 26 60
e 26 62
e 26 65
e 26 67
e 26 70
e 26 75
e 26 77
e 26 82
e 26 85
e 26 86
e 26 87
e 26 92
e 26 93
e 26 94
e 26 95
e 27 29
e 27 30
e 27 31
e 27 32
e 27 37
e 27 38
e 27 39
e 27 40
e 27 41
e 27 42
e 27 43
e 27 44
e 27 45
e 27 46
e 27 48
e 27 49
e 27 51
e 27 52
e 27 58
e 27 63
e 27 64
e 27 71
e 27 82
e 27 84
e 27 88
e 27 91
e 27 92
e 27 96
e 27 98
e 27 100
e 28 29
e 28 30
e 28 31
e 28 33
e 28 34
e 28 36
e 28 37
e 28 38
e 28 40
e 28 41
e 28 42
e 28 46
e 28 47
e 28 48
e 28 51
e 28 52
e 28 61
e 28 64
e 28 65
e 28 68
e 28 78
e 28 79
e 28 81
e 28 87
e 28 93
e 28 98
e 29 30
e 29 31
e 29 32
e 29 33
e 29 34
e 29 35
e 29 37
e 29 38
e 29 40
e 29 43
e 29 45
e 29 46
e 29 48
e 29 49
e 29 50
e 29 51
e 29 61
e 29 63
e 29 64
e 29 68
e 29 70
e 29 72
e 29 74
e 29 75
e 29 86
e 29 89
e 29 96
e 29 100
e 30 31
e 30 32
e 30 33
e 30 34
e 30 35
e 30 36
e 30 39
e 30 40
e 30 42
e 30 43
e 30 44
e 30 45
e 30 47
e 30 49
e 30 51
e 30 52
e 30 61
e 30 74
e 30 82
e 30 83
e 30 86
e 30 93
e 30 96
e 30 99
e 31 33
e 31 34
e 31 36
e 31 37
e 31 38
e 31 40
e 31 41
e 31 42
e 31 44
e 31 46
e 31 47
e 31 48
e 31 49
e 31 57
e 31 62
e 31 77
e 31 79
e 31 83
e 31 84
e 31 85
e 31 87
e 31 89
e 31 95
e 31 98
e 31 99
e 32 35
e 32 36
e 32 37
e 32 38
e 32 39
e 32 40
e 32 42
e 32 43
e 32 44
e 32 45
e 32 47
e 32 48
e 32 50
e 32 51
e 32 52
e 32 55
e 32 56
e 32 61
e 32 66
e 32 78
e 32 81
e 32 84
e 32 85
e 32 87
e 32 97
e 33 34
e 33 35
e 33 37
e 33 38
e 33 39
e 33 40
e 33 42
e 33 45
e 33 46
e 33 47
e 33 48
e 33 50
e 33 51
e 33 52
e 33 59
e 33 60
e 33 65
e 33 75
e 33 76
e 33 78
e 33 79
e 33 80
e 33 88
e 33 89
e 33 92
e 33 93
e 33 99
e 34 39
e 34 40
e 34 41
e 34 42
e 34 43
e 34 46
e 34 47
e 34 48
e 34 49
e 34 50
e 34 51
e 34 52
e 34 59
e 34 60
e 34 66
e 34 72
e 34 75
e 34 77
e 34 79
e 34 83
e 35 36
e 35 38
e 35 40
e 35 41
e 35 42
e 35 43
e 35 46
e 35 47
e 35 48
e 35 49
e 35 50
e 35 51
e 35 63
e 35 67
e 35 68
e 35 83
e 35 88
e 35 90
e 35 96
e 35 100
e 36 37
e 36 38
e 36 39
e 36 40
e 36 43
e 36 44
e 36 45
e 36 46
e 36 47
e 36 48
e 36 49
e 36 51
e 36 52
e 36 55
e 36 57
e 36 58
e 36 64
e 36 65
e 36 71
e 36 73
e 36 80
e 36 81
e 36 84
e 36 86
e 36 90
e 36 92
e 36 97
e 36 100
e 37 38
e 37 40
e 37 43
e 37 44
e 37 46
e 37 47
e 37 48
e 37 49
e 37 50
e 37 51
e 37 52
e 37 61
e 37 64
e 37 65
e 37 69
e 37 73
e 37 78
e 37 79
e 37 80
e 37 81
e 37 83
e 37 84
e 37 90
e 37 96
e 37 97
e 37 99
e 37 100
e 38 39
e 38 42
e 38 43
e 38 44
e 38 46
e 38 48
e 38 49
e 38 50
e 38 51
e 38 52
e 38 57
e 38 59
e 38 62
e 38 64
e 38 65
e 38 67
e 38 68
e 38 69
e 38 71
e 38 76
e 38 81
e 38 85
e 38 87
e 38 88
e 38 98
e 39 40
e 39 41
e 39 42
e 39 44
e 39 45
e 39 46
e 39 49
e 39 50
e 39 51
e 39 59
e 39 64
e 39 68
e 39 72
e 39 75
e 39 80
e 39 86
e 39 88
e 39 89
e 39 93
e 39 95
e 39 97
e 40 41
e 40 42
e 40 43
e 40 45
e 40 46
e 40 47
e 40 48
e 40 49
e 40 51
e 40 68
e 40 71
e 40 73
e 40 82
e 40 86
e 40 91
e 40 93
e 40 95
e 41 44
e 41 47
e 41 48
e 41 49
e 41 50
e 41 51
e 41 52
e 41 68
e 41 69
e 41 72
e 41 83
e 41 88
e 41 89
e 41 92
e 42 44
e 42 45
e 42 48
e 42 50
e 42 58
e 42 59
e 42 61
e 42 64
e 42 69
e 42 71
e 42 73
e 42 84
e 42 96
e 42 100
e 43 45
e 43 46
e 43 47
e 43 48
e 43 49
e 43 52
e 43 63
e 43 66
e 43 67
e 43 73
e 43 78
e 43 80
e 43 83
e 43 88
e 43 90
e 43 96
e 44 45
e 44 47
e 44 48
e 44 49
e 44 51
e 44 52
e 44 60
e 44 63
e 44 64
e 44 73
e 44 77
e 44 80
e 44 86
e 44 94
e 45 46
e 45 47
e 45 48
e 45 49
e 45 50
e 45 51
e 45 59
e 45 70
e 45 74
e 45 75
e 45 80
e 45 83
e 45 85
e 45 88
e 45 95
e 46 47
e 46 50
e 46 51
e 46 65
e 46 69
e 46 72
e 46 75
e 46 76
e 46 78
e 46 79
e 46 81
e 46 82
e 46 83
e 46 87
e 46 90
e 46 93
e 46 94
e 47 49
e 47 50
e 47 51
e 47 52
e 47 57
e 47 62
e 47 66
e 47 71
e 47 76
e 47 77
e 47 78
e 47 80
e 47 82
e 47 84
e 47 85
e 47 92
e 47 94
e 47 96
e 47 97
e 47 98
e 47 100
e 48 60
e 48 67
e 48 71
e 48 74
e 48 78
e 48 81
e 48 84
e 48 87
e 48 93
e 48 95
e 48 96
e 48 98
e 48 99
e 48 100
e 49 50
e 49 51
e 49 63
e 49 68
e 49 69
e 49 75
e 49 77
e 49 83
e 49 97
e 50 62
e 50 63
e 50 65
e 50 69
e 50 70
e 50 73
e 50 75
e 50 76
e 50 80
e 50 84
e 50 86
e 50 90
e 50 94
e 50 95
e 50 98
e 50 99
e 51 52
e 51 57
e 51 58
e 51 59
e 51 65
e 51 66
e 51 68
e 51 71
e 51 73
e 51 75
e 51 78
e 51 79
e 51 83
e 51 84
e 51 85
e 51 93
e 51 97
e 52 60
e 52 62
e 52 63
e 52 65
e 52 66
e 52 69
e 52 70
e 52 72
e 52 77
e 52 79
e 52 84
e 52 87
e 52 89
e 52 91
e 52 93
e 52 99
e 53 54
e 53 55
e 53 56
e 53 64
e 53 70
e 53 74
e 53 78
e 53 80
e 53 81
e 53 85
e 53 88
e 53 94
e 54 67
e 54 70
e 54 74
e 54 86
e 54 92
e 54 93
e 55 56
e 55 62
e 55 63
e 55 68
e 55 69
e 55 75
e 55 79
e 55 83
e 55 90
e 55 100
e 56 61
e 56 63
e 56 84
e 56 93
e 56 100
e 57 58
e 57 59
e 57 60
e 57 61
e 57 63
e 57 66
e 57 67
e 57 68
e 57 69
e 57 71
e 57 73
e 57 74
e 57 75
e 57 77
e 57 78
e 57 79
e 57 81
e 57 82
e 57 83
e 57 84
e 57 85
e 57 87
e 57 89
e 57 90
e 57 91
e 57 92
e 57 93
e 57 94
e 57 95
e 57 97
e 57 100
e 58 59
e 58 61
e 58 62
e 58 63
e 58 64
e 58 65
e 58 66
e 58 67
e 58 68
e 58 70
e 58 72
e 58 73
e 58 77
e 58 79
e 58 80
e 58 82
e 58 86
e 58 87
e 58 88
e 58 89
e 58 91
e 58 92
e 58 93
e 58 94
e 59 60
e 59 61
e 59 63
e 59 65
e 59 66
e 59 67
e 59 69
e 59 70
e 59 71
e 59 73
e 59 74
e 59 75
e 59 77
e 59 78
e 59 79
e 59 81
e 59 82
e 59 83
e 59 85
e 59 88
e 59 89
e 59 90
e 59 91
e 59 92
e 59 96
e 59 98
e 60 61
e 60 62
e 60 64
e 60 67
e 60 68
e 60 69
e 60 70
e 60 71
e 60 72
e 60 75
e 60 76
e 60 77
e 60 78
e 60 79
e 60 80
e 60 81
e 60 82
e 60 83
e 60 85
e 60 87
e 60 91
e 60 94
e 60 95
e 60 97
e 60 99
e 61 63
e 61 64
e 61 65
e 61 66
e 61 67
e 61 68
e 61 69
e 61 71
e 61 72
e 61 73
e 61 74
e 61 76
e 61 77
e 61 78
e 61 79
e 61 81
e 61 82
e 61 84
e 61 88
e 61 90
e 61 91
e 61 92
e 61 93
e 61 95
e 61 96
e 62 64
e 62 65
e 62 66
e 62 67
e 62 69
e 62 73
e 62 74
e 62 75
e 62 76
e 62 77
e 62 79
e 62 80
e 62 81
e 62 82
e 62 83
e 62 84
e 62 85
e 62 86
e 62 87
e 62 88
e 62 89
e 62 90
e 62 91
e 62 96
e 63 67
e 63 68
e 63 69
e 63 71
e 63 72
e 63 73
e 63 74
e 63 76
e 63 77
e 63 82
e 63 83
e 63 84
e 63 85
e 63 86
e 63 87
e 63 91
e 63 92
e 63 93
e 63 94
e 63 95
e 64 65
e 64 66
e 64 67
e 64 69
e 64 70
e 64 71
e 64 75
e 64 77
e 64 80
e 64 81
e 64 84
e 64 85
e 64 88
e 64 89
e 64 91
e 64 94
e 64 95
e 65 66
e 65 68
e 65 70
e 65 72
e 65 73
e 65 75
e 65 78
e 65 79
e 65 80
e 65 81
e 65 82
e 65 83
e 65 84
e 65 87
e 65 88
e 65 89
e 65 91
e 65 94
e 65 96
e 66 70
e 66 71
e 66 72
e 66 73
e 66 75
e 66 77
e 66 79
e 66 80
e 66 81
e 66 82
e 66 83
e 66 84
e 66 85
e 66 86
e 66 87
e 66 88
e 66 89
e 66 90
e 66 91
e 66 92
e 66 95
e 66 96
e 66 99
e 67 68
e 67 69
e 67 71
e 67 72
e 67 73
e 67 74
e 67 75
e 67 77
e 67 79
e 67 80
e 67 81
e 67 82
e 67 83
e 67 84
e 67 85
e 67 86
e 67 88
e 67 93
e 67 95
e 67 96
e 68 69
e 68 70
e 68 71
e 68 73
e 68 75
e 68 76
e 68 77
e 68 78
e 68 80
e 68 82
e 68 83
e 68 84
e 68 85
e 68 87
e 68 88
e 68 89
e 68 90
e 68 92
e 68 93
e 68 95
e 68 96
e 68 97
e 69 71
e 69 72
e 69 74
e 69 75
e 69 76
e 69 77
e 69 79
e 69 80
e 69 81
e 69 82
e 69 84
e 69 86
e 69 88
e 69 89
e 69 91
e 69 92
e 69 96
e 70 71
e 70 73
e 70 77
e 70 78
e 70 79
e 70 83
e 70 85
e 70 86
e 70 87
e 70 89
e 70 90
e 70 93
e 70 94
e 70 95
e 70 96
e 70 97
e 71 74
e 71 75
e 71 78
e 71 80
e 71 81
e 71 83
e 71 84
e 71 85
e 71 87
e 71 88
e 71 89
e 71 90
e 71 95
e 71 96
e 71 97
e 71 99
e 72 75
e 72 77
e 72 80
e 72 81
e 72 82
e 72 83
e 72 84
e 72 86
e 72 87
e 72 88
e 72 89
e 72 90
e 72 91
e 72 92
e 72 94
e 72 95
e 72 96
e 73 75
e 73 77
e 73 78
e 73 80
e 73 82
e 73 83
e 73 85
e 73 86
e 73 87
e 73 89
e 73 90
e 73 91
e 73 92
e 73 94
e 73 96
e 73 98
e 74 75
e 74 76
e 74 77
e 74 78
e 74 79
e 74 81
e 74 82
e 74 83
e 74 85
e 74 86
e 74 87
e 74 89
e 74 90
e 74 91
e 74 93
e 74 94
e 74 95
e 74 97
e 75 76
e 75 77
e 75 79
e 75 80
e 75 81
e 75 82
e 75 83
e 75 84
e 75 85
e 75 86
e 75 88
e 75 89
e 75 90
e 75 91
e 75 92
e 75 94
e 76 77
e 76 78
e 76 79
e 76 80
e 76 82
e 76 85
e 76 86
e 76 87
e 76 88
e 76 89
e 76 92
e 76 93
e 76 96
e 77 78
e 77 79
e 77 80
e 77 81
e 77 82
e 77 83
e 77 84
e 77 85
e 77 90
e 77 91
e 77 92
e 77 93
e 77 96
e 78 79
e 78 80
e 78 81
e 78 82
e 78 83
e 78 84
e 78 88
e 78 91
e 78 92
e 78 95
e 78 99
e 79 80
e 79 82
e 79 83
e 79 85
e 79 87
e 79 88
e 79 89
e 79 90
e 79 91
e 79 92
e 79 93
e 79 94
e 79 95
e 79 97
e 80 81
e 80 82
e 80 83
e 80 84
e 80 85
e 80 89
e 80 91
e 80 94
e 80 95
e 81 82
e 81 84
e 81 85
e 81 86
e 81 87
e 81 88
e 81 89
e 81 90
e 81 96
e 82 83
e 82 85
e 82 86
e 82 87
e 82 88
e 82 89
e 82 91
e 82 92
e 82 93
e 82 94
e 82 96
e 82 98
e 83 84
e 83 85
e 83 86
e 83 88
e 83 89
e 83 90
e 83 91
e 83 92
e 83 93
e 83 94
e 83 96
e 83 98
e 83 99
e 84 86
e 84 87
e 84 88
e 84 89
e 84 90
e 84 91
e 84 93
e 84 94
e 84 95
e 84 96
e 84 99
e 85 87
e 85 88
e 85 89
e 85 90
e 85 92
e 85 93
e 85 95
e 85 98
e 85 100
e 86 87
e 86 90
e 86 92
e 86 93
e 86 94
e 86 96
e 86 97
e 87 92
e 87 93
e 87 95
e 87 96
e 88 90
e 88 91
e 88 93
e 88 94
e 88 95
e 88 96
e 89 90
e 89 92
e 89 94
e 89 97
e 89 98
e 90 93
e 90 94
e 90 96
e 90 98
e 91 93
e 91 94
e 91 96
e 91 97
e 92 93
e 92 94
e 92 95
e 92 96
e 92 100
e 93 94
e 93 96
e 93 99
e 93 100
e 94 97
e 95 97
e 98 99
e 99 100
